asp/input/in_40_20_8_1.lp
#const n = 40.
#const k = 20.
#const h = 8.
tile(1,11,15).
tile(2,9,12).
tile(3,19,16).
tile(4,12,11).
tile(5,8,15).
tile(6,17,9).
tile(7,20,8).
tile(8,10,5).
tile(9,17,5).
tile(10,1,4).
tile(11,2,9).
tile(12,5,17).
tile(13,8,7).
tile(14,2,20).
tile(15,6,13).
tile(16,1,5).
tile(17,1,11).
tile(18,17,11).
tile(19,14,6).
tile(20,5,1).
tile(21,16,19).
tile(22,17,17).
tile(23,3,1).
tile(24,6,1).
tile(25,11,8).
tile(26,5,8).
tile(27,5,10).
tile(28,5,8).
tile(29,16,13).
tile(30,10,16).
tile(31,17,6).
tile(32,11,1).
tile(33,1,20).
tile(34,19,17).
tile(35,16,4).
tile(36,9,8).
tile(37,17,13).
tile(38,2,2).
tile(39,17,5).
tile(40,8,2).
