minizinc/input/in_40_20_8_1.dzn
n = 40;
k = 20;
h = 8;
tiles = array2d(1..n, 1..2,
[ 11,15
, 9,12
, 19,16
, 12,11
, 8,15
, 17,9
, 20,8
, 10,5
, 17,5
, 1,4
, 2,9
, 5,17
, 8,7
, 2,20
, 6,13
, 1,5
, 1,11
, 17,11
, 14,6
, 5,1
, 16,19
, 17,17
, 3,1
, 6,1
, 11,8
, 5,8
, 5,10
, 5,8
, 16,13
, 10,16
, 17,6
, 11,1
, 1,20
, 19,17
, 16,4
, 9,8
, 17,13
, 2,2
, 17,5
, 8,2
]);